
domSetOfBlockInFunction = array1d(allBlocksInFunction, domSetOfBlockInFunction = [{0},{1,8,0},{2,7,0},{3,0},{4,9,2,7,0},{5,12,4,9,2,7,0},{6,11,4,9,2,7,0},{7,0},{8... ] // array too long to display, dimensions: (52)
);

execFrequencyOfBlockInFunction = array1d(allBlocksInFunction, [16384,8192,8192,16384,4096,1536,2560,16384,16384,8192,8192,4096,4096]);

defEdgesForBlockInFunction = array1d(allBlocksInFunction, [{},{22},{31},{10},{},{29},{30},{},{},{},{},{},{}]);

entryBlockOfFunction = 0;

funLocDomain = [|1, 1, 33, |0, 1, 33, |];

numBlocksInFunction = 13;

numDataInFunction = 35;

numOperationsInFunction = 43;

statesInFunction = [];

inBlock = inBlock = [|10, 0, |11, 0, |12, 0, |13, 0, |14, 0, |52, 1, |53, 5, |54, 6, |55, 7, |56, 8, ... ]; // array too long to display, dimensions: (31)


inBlockSucc = inBlockSucc = [|1, 1, 3, |2, 5, 3, |3, 6, 3, |4, 7, 2, |5, 8, 1, |6, 9, 4, |7, 10, 3, |8, 11, 6... ]; // array too long to display, dimensions: (67)


locDomain = locDomain = locDomain = locDomain = [|31, 27, 0, 31, |31, 15, 0, 31, |31, 7, 1, 31, |32, 27, 0, 31, |32, 15, 0, 31, |... ]; // array too long to display, dimensions: (30)
 // array too long to display, dimensions: (513)


applyDefDomUseConstraintForMatch = array1d(allMatches, applyDefDomUseConstraintForMatch = [false,true,true,true,true,true,true,true,true,true... ] // array too long to display, dimensions: (118)
);

codeSizeOfMatch = array1d(allMatches, codeSizeOfMatch = [0,0,0,0,0,0,0,0,0,0,0,0,0,0,0,0,0,0,0,0,0,0,0,0,0,0,0,0,0,0,0,4,4,4,4,4,4,4,4,4,... ] // array too long to display, dimensions: (118)
);

consumedBlocksInMatch = array1d(allMatches, consumedBlocksInMatch = [{},{},{},{},{},{},{},{},{},{},{},{},{},{},{},{},{},{},{},{},{},{},{},{},{},{},{}... ] // array too long to display, dimensions: (118)
);

dataDefinedByMatch = array1d(allMatches, dataDefinedByMatch = [{10},{},{},{},{},{},{},{},{},{},{34},{33},{0},{1},... ] // array too long to display, dimensions: (129)
);

dataUsedByMatch = array1d(allMatches, dataUsedByMatch = [{22,29},{},{},{},{},{},{},{},{},{},{},{},{},{},{},... ] // array too long to display, dimensions: (154)
);

entryBlockOfMatch = array1d(allMatches, entryBlockOfMatch = [{},{1},{5},{6},{7},{8},{9},{10},{11},{12},{0},{0},{0},{0},{0},{},{},{},{},{},{},... ] // array too long to display, dimensions: (118)
);

latencyOfMatch = array1d(allMatches, latencyOfMatch = [0,0,0,0,0,0,0,0,0,0,0,0,0,0,0,0,0,0,0,0,0,0,0,0,0,0,0,0,0,0,0,1,1,1,1,1,1,1,1,1,... ] // array too long to display, dimensions: (118)
);

nonCopyMatches = {0,1,2,3,4,5,6,7,8,9,10,11,12,13,14,31,32,33,34,35,36,37,38,39,40,41,42,43,44,45,46,47,48,49,50,51,52,53,54,55,56,57,58,59,60,61,116,117};

operationsCoveredByMatch = array1d(allMatches, operationsCoveredByMatch = [{7},{9},{12},{13},{37},{38},{39},{40},{41},{42},{}... ] // array too long to display, dimensions: (136)
);

spannedBlocksInMatch = array1d(allMatches, spannedBlocksInMatch = [{},{1,3},{5,3},{6,3},{7,2},{8,1},{9,4},{10,3},{11,6},{12,5},{0},{0},{0},{0},{0},... ] // array too long to display, dimensions: (162)
);

numLocations = 34;

numMatches = 118;

sameLoc = sameLoc = [|0, 22, 29, |0, 29, 10, |15, 2, 20, |16, 5, 24, |17, 6, 26, |18, 0, 11, |19, 0, ... ]; // array too long to display, dimensions: (55)


